c User generated cnf file
p cnf 10 37
9 -4 7 0 
9 9 -3 0 
6 6 -7 0 
-2 5 4 0 
3 -4 6 0 
-3 6 2 0 
7 -4 6 0 
-9 8 3 0 
2 -3 6 0 
-8 9 9 0 
8 -10 4 0 
-7 2 1 0 
-8 3 2 0 
8 -2 4 0 
-8 6 5 0 
4 3 -7 0 
-10 7 3 0 
7 -2 9 0 
4 6 -9 0 
-1 7 6 0 
-5 7 1 0 
2 -8 9 0 
6 4 -8 0 
3 -4 1 0 
-6 1 8 0 
-10 1 1 0 
-4 6 6 0 
-10 5 9 0 
-8 1 10 0 
-4 8 7 0 
5 -4 9 0 
7 9 -10 0 
-7 3 2 0 
10 -2 4 0 
3 -7 5 0 
-5 2 3 0 
9 9 -3 0 
